10
1 0 2
2 0 4
2 1 2
3 0 2
3 1 1
3 2 5
4 0 5
4 1 2
4 2 4
4 3 3
5 0 3
5 1 5
5 2 4
5 3 5
5 4 4
6 0 1
6 1 1
6 2 2
6 3 1
6 4 1
6 5 4
7 0 3
7 1 5
7 2 4
7 3 4
7 4 2
7 5 3
7 6 3
8 0 3
8 1 5
8 2 3
8 3 2
8 4 1
8 5 1
8 6 1
8 7 4
9 0 4
9 1 2
9 2 1
9 3 2
9 4 4
9 5 1
9 6 4
9 7 1
9 8 1
